c File: data_files/evolved_graphs/g0493.col
c
c Auto generated graph
c
p edge 100 1189
e 1 3
e 1 17
e 1 31
e 1 32
e 1 34
e 1 35
e 1 36
e 1 37
e 1 38
e 1 39
e 1 40
e 1 41
e 1 42
e 1 43
e 1 44
e 1 45
e 1 46
e 1 47
e 1 48
e 1 49
e 1 50
e 1 51
e 1 54
e 1 55
e 1 57
e 1 58
e 1 59
e 1 60
e 1 61
e 1 62
e 1 88
e 1 92
e 1 95
e 1 96
e 1 98
e 1 99
e 1 100
e 2 31
e 2 33
e 2 34
e 2 35
e 2 37
e 2 38
e 2 39
e 2 40
e 2 41
e 2 42
e 2 44
e 2 45
e 2 47
e 2 48
e 2 49
e 2 50
e 2 51
e 2 52
e 2 54
e 2 55
e 2 56
e 2 57
e 2 58
e 2 59
e 2 61
e 2 62
e 2 64
e 2 88
e 2 90
e 2 94
e 2 95
e 2 97
e 3 31
e 3 32
e 3 33
e 3 34
e 3 35
e 3 36
e 3 37
e 3 38
e 3 39
e 3 40
e 3 41
e 3 42
e 3 44
e 3 45
e 3 46
e 3 47
e 3 48
e 3 49
e 3 50
e 3 51
e 3 52
e 3 53
e 3 54
e 3 55
e 3 56
e 3 57
e 3 58
e 3 60
e 3 88
e 3 90
e 3 93
e 3 94
e 3 95
e 3 97
e 3 98
e 4 24
e 4 32
e 4 33
e 4 35
e 4 36
e 4 37
e 4 38
e 4 40
e 4 41
e 4 42
e 4 43
e 4 44
e 4 45
e 4 46
e 4 47
e 4 48
e 4 49
e 4 50
e 4 51
e 4 53
e 4 54
e 4 55
e 4 56
e 4 57
e 4 59
e 4 60
e 4 61
e 4 78
e 4 89
e 4 94
e 4 95
e 4 99
e 5 32
e 5 33
e 5 34
e 5 35
e 5 36
e 5 37
e 5 39
e 5 42
e 5 44
e 5 45
e 5 46
e 5 47
e 5 48
e 5 50
e 5 51
e 5 52
e 5 53
e 5 54
e 5 56
e 5 57
e 5 58
e 5 59
e 5 60
e 5 61
e 5 62
e 5 89
e 5 90
e 5 92
e 5 94
e 5 97
e 5 100
e 6 17
e 6 32
e 6 33
e 6 34
e 6 35
e 6 37
e 6 39
e 6 41
e 6 42
e 6 43
e 6 44
e 6 45
e 6 46
e 6 47
e 6 51
e 6 52
e 6 53
e 6 54
e 6 56
e 6 57
e 6 58
e 6 59
e 6 60
e 6 61
e 6 62
e 6 90
e 6 91
e 6 93
e 6 94
e 6 95
e 6 97
e 6 98
e 6 99
e 6 100
e 7 32
e 7 33
e 7 34
e 7 35
e 7 36
e 7 38
e 7 39
e 7 40
e 7 41
e 7 42
e 7 44
e 7 45
e 7 46
e 7 47
e 7 48
e 7 49
e 7 50
e 7 51
e 7 52
e 7 53
e 7 54
e 7 55
e 7 56
e 7 57
e 7 58
e 7 59
e 7 60
e 7 61
e 7 62
e 7 89
e 7 91
e 7 92
e 7 97
e 7 98
e 7 100
e 8 10
e 8 13
e 8 28
e 8 31
e 8 33
e 8 34
e 8 35
e 8 36
e 8 37
e 8 38
e 8 39
e 8 40
e 8 42
e 8 43
e 8 44
e 8 45
e 8 48
e 8 49
e 8 50
e 8 52
e 8 55
e 8 57
e 8 58
e 8 60
e 8 61
e 8 62
e 8 78
e 8 90
e 8 92
e 8 94
e 8 99
e 9 31
e 9 32
e 9 33
e 9 35
e 9 36
e 9 37
e 9 38
e 9 39
e 9 40
e 9 42
e 9 43
e 9 45
e 9 46
e 9 47
e 9 48
e 9 49
e 9 50
e 9 52
e 9 53
e 9 54
e 9 55
e 9 57
e 9 58
e 9 60
e 9 61
e 9 62
e 9 90
e 9 91
e 9 95
e 9 96
e 9 100
e 10 31
e 10 34
e 10 35
e 10 36
e 10 38
e 10 40
e 10 41
e 10 43
e 10 44
e 10 45
e 10 46
e 10 47
e 10 48
e 10 49
e 10 51
e 10 52
e 10 53
e 10 54
e 10 55
e 10 56
e 10 57
e 10 58
e 10 60
e 10 61
e 10 62
e 10 89
e 10 90
e 10 91
e 10 93
e 11 13
e 11 32
e 11 34
e 11 35
e 11 36
e 11 37
e 11 38
e 11 39
e 11 40
e 11 42
e 11 43
e 11 46
e 11 47
e 11 48
e 11 50
e 11 51
e 11 52
e 11 53
e 11 54
e 11 56
e 11 57
e 11 60
e 11 62
e 11 90
e 11 91
e 11 93
e 11 98
e 11 100
e 12 26
e 12 31
e 12 32
e 12 33
e 12 35
e 12 36
e 12 37
e 12 38
e 12 39
e 12 40
e 12 42
e 12 43
e 12 44
e 12 49
e 12 50
e 12 51
e 12 53
e 12 54
e 12 55
e 12 56
e 12 57
e 12 62
e 12 71
e 12 88
e 12 93
e 12 94
e 12 95
e 12 97
e 12 99
e 13 31
e 13 33
e 13 34
e 13 35
e 13 36
e 13 37
e 13 38
e 13 40
e 13 42
e 13 44
e 13 45
e 13 46
e 13 47
e 13 48
e 13 50
e 13 51
e 13 52
e 13 53
e 13 54
e 13 55
e 13 56
e 13 58
e 13 59
e 13 60
e 13 61
e 13 89
e 13 91
e 13 92
e 13 95
e 13 97
e 14 31
e 14 32
e 14 33
e 14 34
e 14 35
e 14 36
e 14 37
e 14 38
e 14 39
e 14 40
e 14 41
e 14 42
e 14 43
e 14 44
e 14 45
e 14 46
e 14 47
e 14 48
e 14 49
e 14 50
e 14 51
e 14 52
e 14 54
e 14 55
e 14 56
e 14 57
e 14 58
e 14 59
e 14 60
e 14 61
e 14 62
e 14 65
e 14 89
e 14 92
e 14 93
e 14 95
e 14 96
e 15 31
e 15 33
e 15 34
e 15 35
e 15 36
e 15 37
e 15 38
e 15 39
e 15 41
e 15 42
e 15 45
e 15 46
e 15 47
e 15 48
e 15 49
e 15 51
e 15 52
e 15 54
e 15 55
e 15 56
e 15 59
e 15 60
e 15 61
e 15 72
e 15 88
e 15 91
e 15 92
e 15 94
e 15 96
e 15 100
e 16 27
e 16 31
e 16 32
e 16 34
e 16 37
e 16 38
e 16 39
e 16 40
e 16 41
e 16 42
e 16 43
e 16 44
e 16 45
e 16 48
e 16 49
e 16 50
e 16 51
e 16 52
e 16 53
e 16 56
e 16 57
e 16 58
e 16 59
e 16 60
e 16 61
e 16 62
e 16 83
e 16 88
e 16 90
e 16 96
e 16 97
e 16 98
e 16 99
e 16 100
e 17 31
e 17 32
e 17 34
e 17 35
e 17 36
e 17 37
e 17 39
e 17 40
e 17 41
e 17 42
e 17 43
e 17 44
e 17 45
e 17 47
e 17 48
e 17 49
e 17 50
e 17 51
e 17 52
e 17 53
e 17 54
e 17 55
e 17 56
e 17 58
e 17 59
e 17 60
e 17 61
e 17 72
e 17 79
e 17 89
e 17 95
e 17 97
e 18 24
e 18 31
e 18 32
e 18 33
e 18 35
e 18 36
e 18 37
e 18 38
e 18 40
e 18 41
e 18 42
e 18 43
e 18 44
e 18 45
e 18 46
e 18 47
e 18 50
e 18 51
e 18 55
e 18 56
e 18 59
e 18 60
e 18 61
e 18 89
e 18 90
e 18 91
e 18 92
e 18 94
e 18 95
e 18 98
e 18 100
e 19 26
e 19 31
e 19 32
e 19 33
e 19 34
e 19 35
e 19 36
e 19 37
e 19 40
e 19 41
e 19 42
e 19 43
e 19 44
e 19 46
e 19 47
e 19 48
e 19 50
e 19 51
e 19 52
e 19 53
e 19 54
e 19 55
e 19 56
e 19 57
e 19 58
e 19 61
e 19 62
e 19 77
e 19 88
e 19 89
e 19 92
e 19 94
e 19 95
e 19 97
e 19 98
e 19 99
e 19 100
e 20 32
e 20 33
e 20 34
e 20 35
e 20 36
e 20 37
e 20 38
e 20 39
e 20 40
e 20 43
e 20 44
e 20 45
e 20 46
e 20 47
e 20 48
e 20 49
e 20 50
e 20 51
e 20 52
e 20 53
e 20 54
e 20 55
e 20 56
e 20 57
e 20 58
e 20 59
e 20 61
e 20 62
e 20 88
e 20 91
e 20 97
e 20 99
e 21 28
e 21 31
e 21 32
e 21 35
e 21 37
e 21 38
e 21 40
e 21 41
e 21 43
e 21 44
e 21 45
e 21 46
e 21 47
e 21 50
e 21 51
e 21 53
e 21 55
e 21 57
e 21 58
e 21 59
e 21 60
e 21 61
e 21 62
e 21 79
e 21 88
e 21 92
e 21 93
e 21 94
e 21 98
e 22 31
e 22 32
e 22 33
e 22 34
e 22 35
e 22 37
e 22 38
e 22 39
e 22 40
e 22 41
e 22 42
e 22 43
e 22 44
e 22 45
e 22 48
e 22 49
e 22 50
e 22 53
e 22 55
e 22 57
e 22 58
e 22 62
e 22 81
e 22 88
e 22 92
e 22 98
e 22 99
e 23 31
e 23 32
e 23 33
e 23 34
e 23 35
e 23 38
e 23 39
e 23 41
e 23 43
e 23 44
e 23 45
e 23 46
e 23 47
e 23 48
e 23 49
e 23 52
e 23 53
e 23 54
e 23 55
e 23 58
e 23 59
e 23 60
e 23 62
e 23 68
e 23 80
e 23 89
e 23 90
e 23 92
e 23 93
e 23 97
e 23 99
e 23 100
e 24 25
e 24 31
e 24 32
e 24 34
e 24 35
e 24 37
e 24 38
e 24 39
e 24 40
e 24 41
e 24 42
e 24 43
e 24 45
e 24 48
e 24 49
e 24 50
e 24 51
e 24 52
e 24 54
e 24 55
e 24 56
e 24 57
e 24 58
e 24 59
e 24 60
e 24 61
e 24 75
e 24 88
e 24 89
e 24 91
e 24 92
e 24 93
e 24 94
e 24 97
e 24 99
e 24 100
e 25 32
e 25 33
e 25 34
e 25 35
e 25 36
e 25 37
e 25 38
e 25 40
e 25 41
e 25 42
e 25 43
e 25 44
e 25 45
e 25 47
e 25 48
e 25 49
e 25 51
e 25 53
e 25 54
e 25 55
e 25 56
e 25 57
e 25 58
e 25 59
e 25 60
e 25 61
e 25 62
e 25 65
e 25 73
e 25 77
e 25 82
e 25 92
e 25 96
e 25 98
e 26 31
e 26 32
e 26 33
e 26 34
e 26 35
e 26 36
e 26 37
e 26 39
e 26 40
e 26 41
e 26 42
e 26 43
e 26 45
e 26 46
e 26 48
e 26 49
e 26 50
e 26 51
e 26 52
e 26 54
e 26 55
e 26 56
e 26 58
e 26 59
e 26 61
e 26 62
e 26 90
e 26 91
e 26 99
e 26 100
e 27 31
e 27 32
e 27 36
e 27 38
e 27 39
e 27 40
e 27 41
e 27 42
e 27 43
e 27 45
e 27 46
e 27 47
e 27 48
e 27 50
e 27 52
e 27 53
e 27 55
e 27 56
e 27 57
e 27 58
e 27 59
e 27 60
e 27 61
e 27 63
e 27 88
e 27 91
e 27 92
e 27 95
e 27 96
e 28 32
e 28 33
e 28 34
e 28 35
e 28 37
e 28 38
e 28 39
e 28 41
e 28 42
e 28 43
e 28 45
e 28 46
e 28 47
e 28 48
e 28 49
e 28 50
e 28 52
e 28 53
e 28 54
e 28 55
e 28 57
e 28 58
e 28 59
e 28 60
e 28 61
e 28 62
e 28 80
e 28 93
e 28 96
e 28 98
e 29 33
e 29 34
e 29 36
e 29 39
e 29 40
e 29 41
e 29 42
e 29 43
e 29 45
e 29 47
e 29 49
e 29 50
e 29 51
e 29 52
e 29 53
e 29 55
e 29 56
e 29 57
e 29 58
e 29 59
e 29 60
e 29 61
e 29 62
e 29 91
e 29 94
e 29 98
e 30 31
e 30 32
e 30 34
e 30 35
e 30 36
e 30 37
e 30 38
e 30 39
e 30 40
e 30 42
e 30 43
e 30 44
e 30 45
e 30 46
e 30 48
e 30 50
e 30 51
e 30 52
e 30 53
e 30 54
e 30 56
e 30 57
e 30 58
e 30 59
e 30 60
e 30 61
e 30 62
e 30 64
e 30 90
e 30 91
e 30 93
e 30 94
e 30 96
e 30 99
e 30 100
e 31 69
e 31 78
e 31 89
e 31 90
e 31 93
e 31 94
e 31 98
e 31 99
e 31 100
e 32 45
e 32 82
e 32 89
e 32 91
e 32 92
e 32 93
e 32 97
e 33 36
e 33 90
e 33 91
e 33 96
e 33 99
e 33 100
e 34 52
e 34 77
e 34 80
e 34 88
e 34 89
e 34 92
e 34 93
e 34 95
e 34 98
e 34 99
e 35 88
e 35 92
e 35 93
e 35 95
e 35 96
e 35 97
e 35 98
e 35 99
e 36 83
e 36 88
e 36 89
e 36 90
e 36 91
e 36 92
e 36 93
e 36 96
e 36 99
e 36 100
e 37 89
e 37 91
e 37 94
e 37 95
e 37 96
e 37 97
e 37 99
e 37 100
e 38 57
e 38 66
e 38 91
e 38 93
e 38 94
e 38 95
e 38 97
e 38 100
e 39 64
e 39 71
e 39 88
e 39 89
e 39 90
e 39 92
e 39 95
e 39 96
e 39 98
e 39 100
e 40 90
e 40 92
e 40 93
e 40 98
e 40 99
e 40 100
e 41 46
e 41 64
e 41 66
e 41 88
e 41 90
e 41 91
e 41 92
e 41 96
e 41 97
e 41 98
e 41 99
e 42 45
e 42 55
e 42 72
e 42 88
e 42 90
e 42 91
e 42 96
e 42 97
e 43 48
e 43 74
e 43 89
e 43 91
e 43 93
e 43 95
e 43 97
e 44 52
e 44 88
e 44 92
e 44 93
e 44 100
e 45 63
e 45 68
e 45 85
e 45 90
e 45 92
e 45 93
e 45 99
e 46 64
e 46 89
e 46 93
e 46 97
e 47 54
e 47 56
e 47 91
e 47 94
e 47 95
e 47 99
e 48 82
e 48 89
e 48 93
e 48 94
e 48 95
e 48 96
e 49 51
e 49 88
e 49 93
e 49 94
e 49 95
e 49 96
e 49 100
e 50 64
e 50 90
e 50 92
e 50 94
e 50 95
e 50 99
e 50 100
e 51 59
e 51 61
e 51 89
e 51 91
e 51 92
e 51 96
e 51 99
e 52 58
e 52 88
e 52 92
e 52 93
e 52 98
e 53 89
e 53 90
e 53 94
e 53 100
e 54 89
e 54 91
e 54 93
e 54 94
e 54 97
e 54 98
e 54 100
e 55 97
e 55 100
e 56 89
e 56 91
e 56 93
e 56 95
e 56 96
e 56 98
e 56 99
e 56 100
e 57 85
e 57 89
e 57 90
e 57 93
e 57 96
e 57 99
e 57 100
e 58 88
e 58 92
e 58 94
e 58 96
e 58 99
e 58 100
e 59 88
e 59 93
e 59 97
e 59 98
e 60 74
e 60 89
e 60 91
e 60 92
e 60 96
e 60 97
e 60 99
e 61 88
e 61 90
e 61 94
e 61 95
e 61 96
e 61 97
e 61 98
e 62 89
e 62 90
e 62 91
e 62 94
e 62 95
e 62 97
e 62 99
e 64 85
e 64 98
e 65 86
e 67 95
e 68 94
e 74 85
e 75 97
e 78 91
e 80 97
e 82 98
e 86 88
e 89 93
e 95 100
